672 245 917 229 569 767 0 401 389 581
901 609 987 365 126 456 742 1183 0 512
987 1301 251 47 847 694 1209 309 1089 1161
322 278 236 820 0 216 491 611 251 1265
627 584 609 456 431 302 32 516 521 0
754 0 505 936 1179 1115 582 968 86 656
498 1306 435 263 1108 0 86 640 800 341
847 1170 0 245 528 611 928 591 735 263
263 322 902 0 47 1042 176 1126 1226 910
0 1239 747 928 837 936 1022 867 1127 1178
1108 1061 836 783 648 86 252 1089 909 980
59 185 841 1105 965 1160 1110 912 1079 1059
202 862 59 1072 611 512 648 1251 1007 144
133 980 910 341 928 396 432 628 886 945
1190 86 404 516 772 222 462 1099 321 838
1283 157 624 838 380 264 1155 521 657 793
184 1089 657 1265 747 1007 801 1060 922 1185
530 404 308 627 442 149 893 721 1310 1079
1075 654 144 729 321 432 380 807 270 440
416 793 498 131 1057 318 1292 229 1147 704
